1290563663707607323509,3,1,2,02,4,1,2,03,11,1,2,05,6,1,2,011,9,1,2,015,8,1,2,01,9,1,2,03,6,1,2,07,6,1,2,08,6,1,2,05,10,1,2,05,2,1,2,03,14,1,2,02,6,1,2,01,9,1,2,015,14,1,2,015,12,1,2,02,8,1,2,04,3,1,2,07,8,1,2,015,6,1,2,09,9,1,2,05,13,1,2,09,12,1,2,010,12,1,2,08,12,1,2,06,1,1,2,03,10,1,2,07,7,1,2,08,12,1,2,010,10,1,2,07,10,1,2,013,8,1,2,07,11,1,2,04,9,1,2,010,14,1,2,015,9,1,2,09,11,1,2,09,9,1,2,02,8,1,2,012,1,1,2,013,4,1,2,02,7,1,2,07,4,1,2,03,15,1,2,014,6,1,2,08,3,1,2,01,1,1,2,03,12,1,2,012,13,1,2,0